[runlim] version:		1.10
[runlim] time limit:		311040000 seconds
[runlim] real time limit:	600 seconds
[runlim] space limit:		8000 MB
[runlim] argv[0]:		python3
[runlim] argv[1]:		-u
[runlim] argv[2]:		mip.py
[runlim] argv[3]:		scen03
[runlim] start:			Thu Dec 11 21:30:49 2025
[runlim] main pid:		124798
Building MIP model...
[runlim] sample:		9.7 time, 10.4 real, 31.9 MB
[runlim] sample:		19.5 time, 19.6 real, 34.7 MB
[runlim] sample:		29.2 time, 29.6 real, 36.9 MB
[runlim] sample:		39.0 time, 39.6 real, 38.1 MB
[runlim] sample:		48.7 time, 48.8 real, 39.8 MB
[runlim] sample:		58.5 time, 58.8 real, 40.6 MB
[runlim] sample:		68.2 time, 68.8 real, 43.0 MB
[runlim] sample:		78.0 time, 78.0 real, 43.3 MB
Build time: 86.36s
Solving MIP (minimizing number of labels)...
Version identifier: 22.1.1.0 | 2022-11-28 | 9160aff4d
CPXPARAM_Read_DataCheck                          1
Tried aggregator 2 times.
[runlim] sample:		88.5 time, 88.0 real, 175.1 MB
MIP Presolve eliminated 384490 rows and 17 columns.
MIP Presolve modified 20543 coefficients.
Aggregator did 7946 substitutions.
Reduced MIP has 20743 rows, 7977 columns, and 221157 nonzeros.
Reduced MIP has 7977 binaries, 0 generals, 0 SOSs, and 0 indicators.
Presolve time = 1.35 sec. (1320.07 ticks)
Found incumbent of value 48.000000 after 1.58 sec. (1628.46 ticks)
Probing time = 0.02 sec. (3.94 ticks)
Tried aggregator 2 times.
Detecting symmetries...
MIP Presolve eliminated 2 rows and 1 columns.
Aggregator did 2 substitutions.
Reduced MIP has 20739 rows, 7972 columns, and 221148 nonzeros.
Reduced MIP has 7972 binaries, 0 generals, 0 SOSs, and 0 indicators.
Presolve time = 0.23 sec. (241.31 ticks)
Probing time = 0.02 sec. (4.20 ticks)
Clique table members: 20745.
MIP emphasis: balance optimality and feasibility.
MIP search method: dynamic search.
Parallel mode: deterministic, using up to 12 threads.
Root relaxation solution time = 5.82 sec. (3387.80 ticks)

        Nodes                                         Cuts/
   Node  Left     Objective  IInf  Best Integer    Best Bound    ItCnt     Gap

*     0+    0                           44.0000        0.0000           100.00%
*     0+    0                           22.0000        0.0000           100.00%
*     0+    0                           20.0000        0.0000           100.00%
*     0+    0                           18.0000        0.0000           100.00%
*     0+    0                           16.0000        0.0000           100.00%
*     0+    0                           14.0000        0.0000           100.00%
      0     0       12.0000   522       14.0000       12.0000    20288   14.29%
[runlim] sample:		136.4 time, 98.0 real, 386.0 MB
[runlim] sample:		155.9 time, 107.2 real, 399.3 MB
[runlim] sample:		175.4 time, 117.2 real, 399.9 MB
[runlim] sample:		194.9 time, 127.2 real, 400.0 MB
[runlim] sample:		214.4 time, 137.2 real, 400.0 MB
[runlim] sample:		233.9 time, 146.4 real, 400.0 MB
[runlim] sample:		253.4 time, 156.4 real, 400.0 MB
[runlim] sample:		273.0 time, 166.4 real, 400.3 MB
[runlim] sample:		292.5 time, 175.6 real, 400.3 MB
[runlim] sample:		311.9 time, 185.6 real, 400.3 MB
[runlim] sample:		331.5 time, 195.6 real, 400.3 MB
      0     0       12.0000  1084       14.0000     Cuts: 378    82989   14.29%
[runlim] sample:		350.9 time, 204.8 real, 407.7 MB
[runlim] sample:		370.4 time, 214.8 real, 407.9 MB
[runlim] sample:		389.8 time, 224.8 real, 407.9 MB
[runlim] sample:		409.3 time, 233.9 real, 407.9 MB
[runlim] sample:		429.0 time, 243.9 real, 407.9 MB
[runlim] sample:		448.4 time, 253.9 real, 407.9 MB
[runlim] sample:		467.8 time, 263.9 real, 407.9 MB
[runlim] sample:		487.4 time, 273.1 real, 407.9 MB
      0     0       12.0000  1156       14.0000     Cuts: 373   144295   14.29%
[runlim] sample:		506.9 time, 283.1 real, 408.0 MB
[runlim] sample:		526.4 time, 293.1 real, 408.0 MB
[runlim] sample:		546.0 time, 302.3 real, 408.0 MB
[runlim] sample:		565.5 time, 312.3 real, 408.0 MB
[runlim] sample:		585.0 time, 322.3 real, 408.0 MB
Heuristic still looking.
[runlim] sample:		604.5 time, 331.5 real, 408.0 MB
[runlim] sample:		624.0 time, 341.5 real, 408.0 MB
[runlim] sample:		643.5 time, 351.5 real, 408.0 MB
[runlim] sample:		663.0 time, 360.7 real, 408.0 MB
Heuristic still looking.
[runlim] sample:		706.9 time, 370.7 real, 477.5 MB
[runlim] sample:		768.9 time, 380.7 real, 492.0 MB
[runlim] sample:		826.8 time, 390.7 real, 494.0 MB
[runlim] sample:		874.9 time, 399.9 real, 495.3 MB
[runlim] sample:		925.5 time, 409.9 real, 495.4 MB
[runlim] sample:		971.4 time, 419.9 real, 495.5 MB
[runlim] sample:		1010.7 time, 429.1 real, 497.7 MB
[runlim] sample:		1040.0 time, 439.1 real, 498.9 MB
Detecting symmetries...
      0     2       12.0000  1156       14.0000       12.0000   144295   14.29%
Elapsed time = 353.64 sec. (361867.34 ticks, tree = 0.02 MB, solutions = 7)
[runlim] sample:		1059.5 time, 449.1 real, 509.2 MB
[runlim] sample:		1079.0 time, 458.3 real, 509.2 MB
[runlim] sample:		1098.5 time, 468.3 real, 509.2 MB
[runlim] sample:		1118.0 time, 478.3 real, 509.2 MB
[runlim] sample:		1137.5 time, 487.5 real, 509.2 MB
[runlim] sample:		1157.0 time, 497.5 real, 509.2 MB
[runlim] sample:		1176.5 time, 507.5 real, 509.2 MB
      1     3       12.0000  1083       14.0000       12.0000   222167   14.29%
[runlim] sample:		1200.8 time, 517.5 real, 509.2 MB
[runlim] sample:		1230.1 time, 526.7 real, 513.4 MB
[runlim] sample:		1259.3 time, 536.7 real, 513.5 MB
[runlim] sample:		1288.6 time, 546.7 real, 513.7 MB
[runlim] sample:		1317.8 time, 555.9 real, 513.7 MB
[runlim] sample:		1347.1 time, 565.9 real, 513.7 MB
[runlim] sample:		1376.3 time, 575.9 real, 513.7 MB
[runlim] sample:		1405.6 time, 585.1 real, 513.7 MB
[runlim] sample:		1434.8 time, 595.1 real, 513.7 MB
[runlim] end:			Thu Dec 11 21:40:49 2025
[runlim] status:		out of time
[runlim] result:		2
[runlim] children:		0
[runlim] real:			600.05 seconds
[runlim] time:			1449.13 seconds
[runlim] space:			513.7 MB
[runlim] samples:		6149
